============================[ Problem Statistics ]=============================|                                                                             ||  Number of variables:          4242                                         ||  Number of clauses:            9651                                         ||  Parse time:                   0.06 s                                       ||                                                                             |============================[ Search Statistics ]==============================| Conflicts |          ORIGINAL         |          LEARNT          | Progress ||           |    Vars  Clauses Literals |    Limit  Clauses Lit/Cl |          |==============================================================================================================================================================restarts              : 1conflicts             : 37             (481 /sec)decisions             : 122            (0.00 % random) (1584 /sec)propagations          : 8089           (105052 /sec)conflict literals     : 1364           (95.72 % deleted)CPU time              : 0.077 sSATISFIABLE